p sp 1600 2208
a 1 41 1
a 5 45 1
a 5 6 1
a 6 46 1
a 6 5 1
a 6 7 1
a 7 6 1
a 7 8 1
a 8 48 1
a 8 7 1
a 12 52 1
a 12 13 1
a 13 12 1
a 13 14 1
a 14 54 1
a 14 13 1
a 16 17 1
a 17 16 1
a 17 18 1
a 18 17 1
a 21 22 1
a 22 21 1
a 22 23 1
a 23 22 1
a 25 26 1
a 26 66 1
a 26 25 1
a 26 27 1
a 27 67 1
a 27 26 1
a 27 28 1
a 28 68 1
a 28 27 1
a 30 70 1
a 32 72 1
a 32 33 1
a 33 73 1
a 33 32 1
a 33 34 1
a 34 74 1
a 34 33 1
a 34 35 1
a 35 34 1
a 35 36 1
a 36 76 1
a 36 35 1
a 36 37 1
a 37 77 1
a 37 36 1
a 37 38 1
a 38 78 1
a 38 37 1
a 38 39 1
a 39 79 1
a 39 38 1
a 39 40 1
a 40 80 1
a 40 39 1
a 41 1 1
a 41 81 1
a 41 42 1
a 42 41 1
a 44 45 1
a 45 5 1
a 45 85 1
a 45 44 1
a 45 46 1
a 46 6 1
a 46 45 1
a 48 8 1
a 48 88 1
a 48 49 1
a 49 89 1
a 49 48 1
a 49 50 1
a 50 49 1
a 50 51 1
a 51 91 1
a 51 50 1
a 51 52 1
a 52 12 1
a 52 51 1
a 54 14 1
a 54 94 1
a 54 55 1
a 55 54 1
a 60 100 1
a 66 26 1
a 66 106 1
a 66 67 1
a 67 27 1
a 67 66 1
a 67 68 1
a 68 28 1
a 68 108 1
a 68 67 1
a 68 69 1
a 69 109 1
a 69 68 1
a 69 70 1
a 70 30 1
a 70 110 1
a 70 69 1
a 70 71 1
a 71 70 1
a 71 72 1
a 72 32 1
a 72 71 1
a 72 73 1
a 73 33 1
a 73 72 1
a 73 74 1
a 74 34 1
a 74 114 1
a 74 73 1
a 76 36 1
a 76 77 1
a 77 37 1
a 77 117 1
a 77 76 1
a 77 78 1
a 78 38 1
a 78 77 1
a 78 79 1
a 79 39 1
a 79 119 1
a 79 78 1
a 79 80 1
a 80 40 1
a 80 120 1
a 80 79 1
a 81 41 1
a 81 121 1
a 83 123 1
a 85 45 1
a 85 125 1
a 88 48 1
a 88 89 1
a 89 49 1
a 89 88 1
a 91 51 1
a 91 131 1
a 93 133 1
a 93 94 1
a 94 54 1
a 94 93 1
a 99 100 1
a 100 60 1
a 100 140 1
a 100 99 1
a 103 143 1
a 106 66 1
a 106 146 1
a 108 68 1
a 108 148 1
a 108 109 1
a 109 69 1
a 109 108 1
a 109 110 1
a 110 70 1
a 110 109 1
a 114 74 1
a 114 154 1
a 114 115 1
a 115 114 1
a 117 77 1
a 117 157 1
a 119 79 1
a 119 159 1
a 119 120 1
a 120 80 1
a 120 160 1
a 120 119 1
a 121 81 1
a 121 122 1
a 122 121 1
a 122 123 1
a 123 83 1
a 123 163 1
a 123 122 1
a 123 124 1
a 124 123 1
a 124 125 1
a 125 85 1
a 125 165 1
a 125 124 1
a 130 170 1
a 130 131 1
a 131 91 1
a 131 171 1
a 131 130 1
a 133 93 1
a 137 138 1
a 138 178 1
a 138 137 1
a 140 100 1
a 140 141 1
a 141 181 1
a 141 140 1
a 143 103 1
a 143 183 1
a 145 185 1
a 145 146 1
a 146 106 1
a 146 145 1
a 146 147 1
a 147 187 1
a 147 146 1
a 147 148 1
a 148 108 1
a 148 188 1
a 148 147 1
a 151 191 1
a 153 154 1
a 154 114 1
a 154 194 1
a 154 153 1
a 157 117 1
a 159 119 1
a 159 199 1
a 159 160 1
a 160 120 1
a 160 200 1
a 160 159 1
a 163 123 1
a 163 203 1
a 165 125 1
a 165 166 1
a 166 165 1
a 168 208 1
a 168 169 1
a 169 168 1
a 169 170 1
a 170 130 1
a 170 210 1
a 170 169 1
a 170 171 1
a 171 131 1
a 171 211 1
a 171 170 1
a 171 172 1
a 172 212 1
a 172 171 1
a 174 214 1
a 174 175 1
a 175 174 1
a 175 176 1
a 176 175 1
a 178 138 1
a 178 218 1
a 181 141 1
a 181 221 1
a 181 182 1
a 182 222 1
a 182 181 1
a 182 183 1
a 183 143 1
a 183 223 1
a 183 182 1
a 183 184 1
a 184 183 1
a 184 185 1
a 185 145 1
a 185 225 1
a 185 184 1
a 187 147 1
a 187 188 1
a 188 148 1
a 188 187 1
a 188 189 1
a 189 229 1
a 189 188 1
a 189 190 1
a 190 230 1
a 190 189 1
a 190 191 1
a 191 151 1
a 191 190 1
a 191 192 1
a 192 232 1
a 192 191 1
a 194 154 1
a 194 195 1
a 195 235 1
a 195 194 1
a 195 196 1
a 196 236 1
a 196 195 1
a 199 159 1
a 199 200 1
a 200 160 1
a 200 240 1
a 200 199 1
a 201 202 1
a 202 242 1
a 202 201 1
a 202 203 1
a 203 163 1
a 203 243 1
a 203 202 1
a 203 204 1
a 204 244 1
a 204 203 1
a 207 208 1
a 208 168 1
a 208 248 1
a 208 207 1
a 210 170 1
a 210 211 1
a 211 171 1
a 211 210 1
a 211 212 1
a 212 172 1
a 212 211 1
a 212 213 1
a 213 253 1
a 213 212 1
a 213 214 1
a 214 174 1
a 214 254 1
a 214 213 1
a 218 178 1
a 218 258 1
a 220 221 1
a 221 181 1
a 221 261 1
a 221 220 1
a 221 222 1
a 222 182 1
a 222 262 1
a 222 221 1
a 222 223 1
a 223 183 1
a 223 222 1
a 225 185 1
a 225 265 1
a 225 226 1
a 226 266 1
a 226 225 1
a 229 189 1
a 229 230 1
a 230 190 1
a 230 229 1
a 232 192 1
a 232 233 1
a 233 232 1
a 235 195 1
a 235 275 1
a 235 236 1
a 236 196 1
a 236 235 1
a 236 237 1
a 237 236 1
a 237 238 1
a 238 237 1
a 240 200 1
a 240 280 1
a 242 202 1
a 242 282 1
a 242 243 1
a 243 203 1
a 243 283 1
a 243 242 1
a 243 244 1
a 244 204 1
a 244 284 1
a 244 243 1
a 244 245 1
a 245 285 1
a 245 244 1
a 248 208 1
a 248 288 1
a 253 213 1
a 253 293 1
a 253 254 1
a 254 214 1
a 254 294 1
a 254 253 1
a 257 297 1
a 257 258 1
a 258 218 1
a 258 257 1
a 261 221 1
a 261 262 1
a 262 222 1
a 262 302 1
a 262 261 1
a 264 304 1
a 264 265 1
a 265 225 1
a 265 264 1
a 265 266 1
a 266 226 1
a 266 306 1
a 266 265 1
a 266 267 1
a 267 307 1
a 267 266 1
a 267 268 1
a 268 267 1
a 275 235 1
a 275 315 1
a 279 319 1
a 279 280 1
a 280 240 1
a 280 279 1
a 281 321 1
a 281 282 1
a 282 242 1
a 282 281 1
a 282 283 1
a 283 243 1
a 283 323 1
a 283 282 1
a 283 284 1
a 284 244 1
a 284 283 1
a 284 285 1
a 285 245 1
a 285 284 1
a 288 248 1
a 288 289 1
a 289 288 1
a 291 331 1
a 293 253 1
a 293 333 1
a 293 294 1
a 294 254 1
a 294 334 1
a 294 293 1
a 294 295 1
a 295 335 1
a 295 294 1
a 295 296 1
a 296 336 1
a 296 295 1
a 296 297 1
a 297 257 1
a 297 296 1
a 300 340 1
a 302 262 1
a 302 342 1
a 302 303 1
a 303 343 1
a 303 302 1
a 303 304 1
a 304 264 1
a 304 303 1
a 306 266 1
a 306 346 1
a 306 307 1
a 307 267 1
a 307 347 1
a 307 306 1
a 310 311 1
a 311 310 1
a 311 312 1
a 312 352 1
a 312 311 1
a 312 313 1
a 313 312 1
a 315 275 1
a 315 355 1
a 315 316 1
a 316 356 1
a 316 315 1
a 319 279 1
a 321 281 1
a 323 283 1
a 323 363 1
a 326 366 1
a 330 370 1
a 330 331 1
a 331 291 1
a 331 330 1
a 333 293 1
a 333 334 1
a 334 294 1
a 334 333 1
a 334 335 1
a 335 295 1
a 335 334 1
a 335 336 1
a 336 296 1
a 336 376 1
a 336 335 1
a 338 378 1
a 338 339 1
a 339 338 1
a 339 340 1
a 340 300 1
a 340 339 1
a 340 341 1
a 341 381 1
a 341 340 1
a 341 342 1
a 342 302 1
a 342 382 1
a 342 341 1
a 342 343 1
a 343 303 1
a 343 383 1
a 343 342 1
a 345 346 1
a 346 306 1
a 346 386 1
a 346 345 1
a 346 347 1
a 347 307 1
a 347 387 1
a 347 346 1
a 352 312 1
a 352 392 1
a 354 394 1
a 354 355 1
a 355 315 1
a 355 395 1
a 355 354 1
a 355 356 1
a 356 316 1
a 356 355 1
a 358 398 1
a 362 402 1
a 362 363 1
a 363 323 1
a 363 362 1
a 363 364 1
a 364 404 1
a 364 363 1
a 366 326 1
a 366 406 1
a 366 367 1
a 367 366 1
a 367 368 1
a 368 367 1
a 370 330 1
a 372 412 1
a 376 336 1
a 376 416 1
a 378 338 1
a 378 418 1
a 381 341 1
a 381 421 1
a 381 382 1
a 382 342 1
a 382 422 1
a 382 381 1
a 382 383 1
a 383 343 1
a 383 423 1
a 383 382 1
a 386 346 1
a 386 387 1
a 387 347 1
a 387 427 1
a 387 386 1
a 389 429 1
a 391 392 1
a 392 352 1
a 392 391 1
a 392 393 1
a 393 433 1
a 393 392 1
a 393 394 1
a 394 354 1
a 394 434 1
a 394 393 1
a 394 395 1
a 395 355 1
a 395 394 1
a 398 358 1
a 402 362 1
a 402 442 1
a 404 364 1
a 406 366 1
a 406 446 1
a 411 451 1
a 411 412 1
a 412 372 1
a 412 452 1
a 412 411 1
a 415 455 1
a 415 416 1
a 416 376 1
a 416 415 1
a 416 417 1
a 417 416 1
a 417 418 1
a 418 378 1
a 418 458 1
a 418 417 1
a 420 421 1
a 421 381 1
a 421 420 1
a 421 422 1
a 422 382 1
a 422 462 1
a 422 421 1
a 422 423 1
a 423 383 1
a 423 463 1
a 423 422 1
a 423 424 1
a 424 464 1
a 424 423 1
a 424 425 1
a 425 465 1
a 425 424 1
a 427 387 1
a 427 428 1
a 428 468 1
a 428 427 1
a 428 429 1
a 429 389 1
a 429 428 1
a 433 393 1
a 433 473 1
a 433 434 1
a 434 394 1
a 434 433 1
a 440 480 1
a 441 481 1
a 441 442 1
a 442 402 1
a 442 482 1
a 442 441 1
a 446 406 1
a 448 488 1
a 451 411 1
a 451 452 1
a 452 412 1
a 452 451 1
a 454 494 1
a 454 455 1
a 455 415 1
a 455 454 1
a 458 418 1
a 458 498 1
a 458 459 1
a 459 458 1
a 462 422 1
a 462 502 1
a 462 463 1
a 463 423 1
a 463 462 1
a 463 464 1
a 464 424 1
a 464 504 1
a 464 463 1
a 464 465 1
a 465 425 1
a 465 464 1
a 468 428 1
a 473 433 1
a 473 513 1
a 475 515 1
a 477 478 1
a 478 518 1
a 478 477 1
a 478 479 1
a 479 478 1
a 479 480 1
a 480 440 1
a 480 479 1
a 481 441 1
a 481 521 1
a 481 482 1
a 482 442 1
a 482 481 1
a 482 483 1
a 483 523 1
a 483 482 1
a 483 484 1
a 484 483 1
a 484 485 1
a 485 484 1
a 488 448 1
a 490 530 1
a 494 454 1
a 494 534 1
a 496 497 1
a 497 496 1
a 497 498 1
a 498 458 1
a 498 538 1
a 498 497 1
a 500 540 1
a 500 501 1
a 501 541 1
a 501 500 1
a 501 502 1
a 502 462 1
a 502 542 1
a 502 501 1
a 504 464 1
a 504 544 1
a 512 552 1
a 512 513 1
a 513 473 1
a 513 553 1
a 513 512 1
a 515 475 1
a 515 555 1
a 515 516 1
a 516 556 1
a 516 515 1
a 518 478 1
a 518 558 1
a 521 481 1
a 521 561 1
a 523 483 1
a 523 563 1
a 526 527 1
a 527 567 1
a 527 526 1
a 529 530 1
a 530 490 1
a 530 529 1
a 530 531 1
a 531 530 1
a 531 532 1
a 532 531 1
a 532 533 1
a 533 573 1
a 533 532 1
a 533 534 1
a 534 494 1
a 534 533 1
a 534 535 1
a 535 534 1
a 538 498 1
a 538 539 1
a 539 579 1
a 539 538 1
a 539 540 1
a 540 500 1
a 540 580 1
a 540 539 1
a 540 541 1
a 541 501 1
a 541 540 1
a 541 542 1
a 542 502 1
a 542 582 1
a 542 541 1
a 544 504 1
a 544 545 1
a 545 585 1
a 545 544 1
a 545 546 1
a 546 586 1
a 546 545 1
a 546 547 1
a 547 546 1
a 550 590 1
a 550 551 1
a 551 591 1
a 551 550 1
a 551 552 1
a 552 512 1
a 552 592 1
a 552 551 1
a 552 553 1
a 553 513 1
a 553 552 1
a 553 554 1
a 554 594 1
a 554 553 1
a 554 555 1
a 555 515 1
a 555 595 1
a 555 554 1
a 555 556 1
a 556 516 1
a 556 596 1
a 556 555 1
a 556 557 1
a 557 597 1
a 557 556 1
a 557 558 1
a 558 518 1
a 558 598 1
a 558 557 1
a 558 559 1
a 559 558 1
a 559 560 1
a 560 600 1
a 560 559 1
a 561 521 1
a 561 601 1
a 561 562 1
a 562 602 1
a 562 561 1
a 562 563 1
a 563 523 1
a 563 603 1
a 563 562 1
a 567 527 1
a 567 607 1
a 573 533 1
a 573 613 1
a 579 539 1
a 579 619 1
a 579 580 1
a 580 540 1
a 580 620 1
a 580 579 1
a 582 542 1
a 582 622 1
a 585 545 1
a 585 586 1
a 586 546 1
a 586 585 1
a 589 629 1
a 589 590 1
a 590 550 1
a 590 630 1
a 590 589 1
a 590 591 1
a 591 551 1
a 591 631 1
a 591 590 1
a 591 592 1
a 592 552 1
a 592 591 1
a 594 554 1
a 594 595 1
a 595 555 1
a 595 635 1
a 595 594 1
a 595 596 1
a 596 556 1
a 596 595 1
a 596 597 1
a 597 557 1
a 597 596 1
a 597 598 1
a 598 558 1
a 598 638 1
a 598 597 1
a 600 560 1
a 601 561 1
a 601 641 1
a 601 602 1
a 602 562 1
a 602 642 1
a 602 601 1
a 602 603 1
a 603 563 1
a 603 602 1
a 603 604 1
a 604 603 1
a 606 646 1
a 606 607 1
a 607 567 1
a 607 647 1
a 607 606 1
a 607 608 1
a 608 648 1
a 608 607 1
a 608 609 1
a 609 608 1
a 609 610 1
a 610 609 1
a 612 652 1
a 612 613 1
a 613 573 1
a 613 653 1
a 613 612 1
a 613 614 1
a 614 613 1
a 614 615 1
a 615 655 1
a 615 614 1
a 619 579 1
a 619 659 1
a 619 620 1
a 620 580 1
a 620 660 1
a 620 619 1
a 620 621 1
a 621 661 1
a 621 620 1
a 621 622 1
a 622 582 1
a 622 621 1
a 622 623 1
a 623 663 1
a 623 622 1
a 629 589 1
a 629 630 1
a 630 590 1
a 630 629 1
a 630 631 1
a 631 591 1
a 631 671 1
a 631 630 1
a 635 595 1
a 635 675 1
a 638 598 1
a 638 678 1
a 638 639 1
a 639 638 1
a 641 601 1
a 641 681 1
a 641 642 1
a 642 602 1
a 642 682 1
a 642 641 1
a 645 685 1
a 645 646 1
a 646 606 1
a 646 645 1
a 646 647 1
a 647 607 1
a 647 646 1
a 647 648 1
a 648 608 1
a 648 688 1
a 648 647 1
a 651 691 1
a 651 652 1
a 652 612 1
a 652 692 1
a 652 651 1
a 652 653 1
a 653 613 1
a 653 693 1
a 653 652 1
a 655 615 1
a 655 695 1
a 655 656 1
a 656 696 1
a 656 655 1
a 659 619 1
a 659 699 1
a 659 660 1
a 660 620 1
a 660 700 1
a 660 659 1
a 660 661 1
a 661 621 1
a 661 701 1
a 661 660 1
a 663 623 1
a 663 703 1
a 665 705 1
a 665 666 1
a 666 665 1
a 666 667 1
a 667 707 1
a 667 666 1
a 671 631 1
a 671 711 1
a 671 672 1
a 672 712 1
a 672 671 1
a 674 714 1
a 674 675 1
a 675 635 1
a 675 715 1
a 675 674 1
a 675 676 1
a 676 675 1
a 676 677 1
a 677 717 1
a 677 676 1
a 677 678 1
a 678 638 1
a 678 718 1
a 678 677 1
a 680 720 1
a 681 641 1
a 681 721 1
a 681 682 1
a 682 642 1
a 682 722 1
a 682 681 1
a 685 645 1
a 688 648 1
a 690 691 1
a 691 651 1
a 691 731 1
a 691 690 1
a 691 692 1
a 692 652 1
a 692 732 1
a 692 691 1
a 692 693 1
a 693 653 1
a 693 692 1
a 693 694 1
a 694 734 1
a 694 693 1
a 694 695 1
a 695 655 1
a 695 735 1
a 695 694 1
a 695 696 1
a 696 656 1
a 696 736 1
a 696 695 1
a 699 659 1
a 699 700 1
a 700 660 1
a 700 740 1
a 700 699 1
a 700 701 1
a 701 661 1
a 701 700 1
a 701 702 1
a 702 742 1
a 702 701 1
a 702 703 1
a 703 663 1
a 703 702 1
a 703 704 1
a 704 703 1
a 704 705 1
a 705 665 1
a 705 745 1
a 705 704 1
a 707 667 1
a 709 749 1
a 711 671 1
a 711 751 1
a 711 712 1
a 712 672 1
a 712 711 1
a 712 713 1
a 713 753 1
a 713 712 1
a 713 714 1
a 714 674 1
a 714 713 1
a 714 715 1
a 715 675 1
a 715 755 1
a 715 714 1
a 717 677 1
a 717 718 1
a 718 678 1
a 718 758 1
a 718 717 1
a 718 719 1
a 719 718 1
a 719 720 1
a 720 680 1
a 720 760 1
a 720 719 1
a 721 681 1
a 721 722 1
a 722 682 1
a 722 762 1
a 722 721 1
a 729 769 1
a 731 691 1
a 731 771 1
a 731 732 1
a 732 692 1
a 732 772 1
a 732 731 1
a 734 694 1
a 734 735 1
a 735 695 1
a 735 734 1
a 735 736 1
a 736 696 1
a 736 735 1
a 738 778 1
a 740 700 1
a 740 780 1
a 742 702 1
a 742 782 1
a 745 705 1
a 745 785 1
a 749 709 1
a 751 711 1
a 751 791 1
a 753 713 1
a 753 793 1
a 755 715 1
a 755 795 1
a 758 718 1
a 760 720 1
a 760 800 1
a 762 722 1
a 762 763 1
a 763 803 1
a 763 762 1
a 763 764 1
a 764 804 1
a 764 763 1
a 768 769 1
a 769 729 1
a 769 809 1
a 769 768 1
a 771 731 1
a 771 811 1
a 771 772 1
a 772 732 1
a 772 812 1
a 772 771 1
a 772 773 1
a 773 772 1
a 778 738 1
a 778 818 1
a 778 779 1
a 779 778 1
a 779 780 1
a 780 740 1
a 780 820 1
a 780 779 1
a 782 742 1
a 782 822 1
a 784 824 1
a 784 785 1
a 785 745 1
a 785 825 1
a 785 784 1
a 787 827 1
a 791 751 1
a 791 831 1
a 791 792 1
a 792 832 1
a 792 791 1
a 792 793 1
a 793 753 1
a 793 833 1
a 793 792 1
a 795 755 1
a 795 835 1
a 797 837 1
a 799 800 1
a 800 760 1
a 800 799 1
a 801 841 1
a 803 763 1
a 803 843 1
a 803 804 1
a 804 764 1
a 804 844 1
a 804 803 1
a 804 805 1
a 805 845 1
a 805 804 1
a 805 806 1
a 806 805 1
a 806 807 1
a 807 847 1
a 807 806 1
a 809 769 1
a 809 810 1
a 810 850 1
a 810 809 1
a 810 811 1
a 811 771 1
a 811 851 1
a 811 810 1
a 811 812 1
a 812 772 1
a 812 852 1
a 812 811 1
a 817 857 1
a 817 818 1
a 818 778 1
a 818 817 1
a 820 780 1
a 820 860 1
a 820 821 1
a 821 861 1
a 821 820 1
a 821 822 1
a 822 782 1
a 822 862 1
a 822 821 1
a 824 784 1
a 824 864 1
a 824 825 1
a 825 785 1
a 825 865 1
a 825 824 1
a 827 787 1
a 827 828 1
a 828 868 1
a 828 827 1
a 828 829 1
a 829 828 1
a 829 830 1
a 830 870 1
a 830 829 1
a 830 831 1
a 831 791 1
a 831 830 1
a 831 832 1
a 832 792 1
a 832 872 1
a 832 831 1
a 832 833 1
a 833 793 1
a 833 832 1
a 833 834 1
a 834 874 1
a 834 833 1
a 834 835 1
a 835 795 1
a 835 834 1
a 837 797 1
a 837 877 1
a 841 801 1
a 841 881 1
a 841 842 1
a 842 841 1
a 842 843 1
a 843 803 1
a 843 842 1
a 843 844 1
a 844 804 1
a 844 884 1
a 844 843 1
a 844 845 1
a 845 805 1
a 845 844 1
a 847 807 1
a 847 887 1
a 847 848 1
a 848 888 1
a 848 847 1
a 850 810 1
a 850 851 1
a 851 811 1
a 851 850 1
a 851 852 1
a 852 812 1
a 852 892 1
a 852 851 1
a 852 853 1
a 853 893 1
a 853 852 1
a 857 817 1
a 857 897 1
a 860 820 1
a 860 900 1
a 860 861 1
a 861 821 1
a 861 901 1
a 861 860 1
a 861 862 1
a 862 822 1
a 862 861 1
a 862 863 1
a 863 903 1
a 863 862 1
a 863 864 1
a 864 824 1
a 864 863 1
a 864 865 1
a 865 825 1
a 865 905 1
a 865 864 1
a 865 866 1
a 866 865 1
a 868 828 1
a 868 908 1
a 870 830 1
a 870 910 1
a 872 832 1
a 872 912 1
a 874 834 1
a 874 914 1
a 877 837 1
a 877 917 1
a 881 841 1
a 884 844 1
a 886 887 1
a 887 847 1
a 887 927 1
a 887 886 1
a 887 888 1
a 888 848 1
a 888 887 1
a 888 889 1
a 889 929 1
a 889 888 1
a 892 852 1
a 892 893 1
a 893 853 1
a 893 892 1
a 895 935 1
a 895 896 1
a 896 936 1
a 896 895 1
a 896 897 1
a 897 857 1
a 897 896 1
a 899 939 1
a 899 900 1
a 900 860 1
a 900 940 1
a 900 899 1
a 900 901 1
a 901 861 1
a 901 900 1
a 903 863 1
a 905 865 1
a 905 945 1
a 907 947 1
a 907 908 1
a 908 868 1
a 908 948 1
a 908 907 1
a 908 909 1
a 909 949 1
a 909 908 1
a 909 910 1
a 910 870 1
a 910 950 1
a 910 909 1
a 912 872 1
a 912 952 1
a 914 874 1
a 914 954 1
a 917 877 1
a 917 957 1
a 923 963 1
a 927 887 1
a 929 889 1
a 929 930 1
a 930 970 1
a 930 929 1
a 930 931 1
a 931 971 1
a 931 930 1
a 934 974 1
a 934 935 1
a 935 895 1
a 935 975 1
a 935 934 1
a 935 936 1
a 936 896 1
a 936 935 1
a 939 899 1
a 939 979 1
a 939 940 1
a 940 900 1
a 940 980 1
a 940 939 1
a 942 982 1
a 945 905 1
a 945 946 1
a 946 945 1
a 946 947 1
a 947 907 1
a 947 946 1
a 947 948 1
a 948 908 1
a 948 988 1
a 948 947 1
a 948 949 1
a 949 909 1
a 949 948 1
a 949 950 1
a 950 910 1
a 950 990 1
a 950 949 1
a 952 912 1
a 952 953 1
a 953 952 1
a 953 954 1
a 954 914 1
a 954 994 1
a 954 953 1
a 954 955 1
a 955 954 1
a 955 956 1
a 956 996 1
a 956 955 1
a 956 957 1
a 957 917 1
a 957 997 1
a 957 956 1
a 960 1000 1
a 961 1001 1
a 961 962 1
a 962 961 1
a 962 963 1
a 963 923 1
a 963 962 1
a 963 964 1
a 964 1004 1
a 964 963 1
a 964 965 1
a 965 1005 1
a 965 964 1
a 968 1008 1
a 970 930 1
a 970 971 1
a 971 931 1
a 971 1011 1
a 971 970 1
a 973 974 1
a 974 934 1
a 974 973 1
a 974 975 1
a 975 935 1
a 975 1015 1
a 975 974 1
a 977 1017 1
a 977 978 1
a 978 1018 1
a 978 977 1
a 978 979 1
a 979 939 1
a 979 1019 1
a 979 978 1
a 979 980 1
a 980 940 1
a 980 979 1
a 980 981 1
a 981 980 1
a 981 982 1
a 982 942 1
a 982 981 1
a 988 948 1
a 990 950 1
a 994 954 1
a 994 1034 1
a 996 956 1
a 996 997 1
a 997 957 1
a 997 1037 1
a 997 996 1
a 997 998 1
a 998 997 1
a 998 999 1
a 999 1039 1
a 999 998 1
a 999 1000 1
a 1000 960 1
a 1000 1040 1
a 1000 999 1
a 1001 961 1
a 1001 1041 1
a 1004 964 1
a 1004 1044 1
a 1004 1005 1
a 1005 965 1
a 1005 1004 1
a 1005 1006 1
a 1006 1046 1
a 1006 1005 1
a 1006 1007 1
a 1007 1006 1
a 1007 1008 1
a 1008 968 1
a 1008 1007 1
a 1011 971 1
a 1011 1051 1
a 1015 975 1
a 1015 1055 1
a 1015 1016 1
a 1016 1056 1
a 1016 1015 1
a 1016 1017 1
a 1017 977 1
a 1017 1016 1
a 1017 1018 1
a 1018 978 1
a 1018 1058 1
a 1018 1017 1
a 1018 1019 1
a 1019 979 1
a 1019 1059 1
a 1019 1018 1
a 1025 1065 1
a 1025 1026 1
a 1026 1066 1
a 1026 1025 1
a 1029 1069 1
a 1031 1032 1
a 1032 1031 1
a 1032 1033 1
a 1033 1073 1
a 1033 1032 1
a 1033 1034 1
a 1034 994 1
a 1034 1033 1
a 1037 997 1
a 1039 999 1
a 1039 1040 1
a 1040 1000 1
a 1040 1080 1
a 1040 1039 1
a 1041 1001 1
a 1044 1004 1
a 1046 1006 1
a 1049 1089 1
a 1051 1011 1
a 1051 1052 1
a 1052 1092 1
a 1052 1051 1
a 1052 1053 1
a 1053 1052 1
a 1055 1015 1
a 1055 1056 1
a 1056 1016 1
a 1056 1096 1
a 1056 1055 1
a 1058 1018 1
a 1058 1098 1
a 1058 1059 1
a 1059 1019 1
a 1059 1099 1
a 1059 1058 1
a 1059 1060 1
a 1060 1100 1
a 1060 1059 1
a 1060 1061 1
a 1061 1101 1
a 1061 1060 1
a 1061 1062 1
a 1062 1102 1
a 1062 1061 1
a 1062 1063 1
a 1063 1103 1
a 1063 1062 1
a 1063 1064 1
a 1064 1104 1
a 1064 1063 1
a 1064 1065 1
a 1065 1025 1
a 1065 1064 1
a 1065 1066 1
a 1066 1026 1
a 1066 1065 1
a 1066 1067 1
a 1067 1107 1
a 1067 1066 1
a 1069 1029 1
a 1069 1109 1
a 1073 1033 1
a 1073 1113 1
a 1075 1115 1
a 1075 1076 1
a 1076 1075 1
a 1078 1118 1
a 1080 1040 1
a 1080 1120 1
a 1083 1123 1
a 1085 1125 1
a 1088 1089 1
a 1089 1049 1
a 1089 1129 1
a 1089 1088 1
a 1092 1052 1
a 1094 1134 1
a 1096 1056 1
a 1096 1097 1
a 1097 1096 1
a 1097 1098 1
a 1098 1058 1
a 1098 1097 1
a 1098 1099 1
a 1099 1059 1
a 1099 1139 1
a 1099 1098 1
a 1099 1100 1
a 1100 1060 1
a 1100 1099 1
a 1100 1101 1
a 1101 1061 1
a 1101 1141 1
a 1101 1100 1
a 1101 1102 1
a 1102 1062 1
a 1102 1142 1
a 1102 1101 1
a 1102 1103 1
a 1103 1063 1
a 1103 1143 1
a 1103 1102 1
a 1103 1104 1
a 1104 1064 1
a 1104 1103 1
a 1107 1067 1
a 1107 1108 1
a 1108 1107 1
a 1108 1109 1
a 1109 1069 1
a 1109 1108 1
a 1109 1110 1
a 1110 1150 1
a 1110 1109 1
a 1110 1111 1
a 1111 1110 1
a 1111 1112 1
a 1112 1152 1
a 1112 1111 1
a 1112 1113 1
a 1113 1073 1
a 1113 1153 1
a 1113 1112 1
a 1115 1075 1
a 1115 1155 1
a 1117 1118 1
a 1118 1078 1
a 1118 1117 1
a 1120 1080 1
a 1121 1122 1
a 1122 1121 1
a 1122 1123 1
a 1123 1083 1
a 1123 1163 1
a 1123 1122 1
a 1123 1124 1
a 1124 1164 1
a 1124 1123 1
a 1124 1125 1
a 1125 1085 1
a 1125 1124 1
a 1127 1167 1
a 1129 1089 1
a 1129 1130 1
a 1130 1170 1
a 1130 1129 1
a 1133 1134 1
a 1134 1094 1
a 1134 1174 1
a 1134 1133 1
a 1134 1135 1
a 1135 1134 1
a 1139 1099 1
a 1139 1179 1
a 1141 1101 1
a 1141 1142 1
a 1142 1102 1
a 1142 1182 1
a 1142 1141 1
a 1142 1143 1
a 1143 1103 1
a 1143 1183 1
a 1143 1142 1
a 1150 1110 1
a 1152 1112 1
a 1152 1192 1
a 1152 1153 1
a 1153 1113 1
a 1153 1193 1
a 1153 1152 1
a 1155 1115 1
a 1155 1156 1
a 1156 1155 1
a 1163 1123 1
a 1163 1203 1
a 1163 1164 1
a 1164 1124 1
a 1164 1204 1
a 1164 1163 1
a 1166 1206 1
a 1166 1167 1
a 1167 1127 1
a 1167 1166 1
a 1170 1130 1
a 1170 1171 1
a 1171 1211 1
a 1171 1170 1
a 1171 1172 1
a 1172 1212 1
a 1172 1171 1
a 1174 1134 1
a 1176 1177 1
a 1177 1217 1
a 1177 1176 1
a 1179 1139 1
a 1179 1219 1
a 1179 1180 1
a 1180 1220 1
a 1180 1179 1
a 1182 1142 1
a 1182 1222 1
a 1182 1183 1
a 1183 1143 1
a 1183 1223 1
a 1183 1182 1
a 1185 1225 1
a 1185 1186 1
a 1186 1185 1
a 1189 1229 1
a 1191 1231 1
a 1191 1192 1
a 1192 1152 1
a 1192 1191 1
a 1192 1193 1
a 1193 1153 1
a 1193 1233 1
a 1193 1192 1
a 1193 1194 1
a 1194 1234 1
a 1194 1193 1
a 1199 1239 1
a 1199 1200 1
a 1200 1240 1
a 1200 1199 1
a 1203 1163 1
a 1203 1204 1
a 1204 1164 1
a 1204 1244 1
a 1204 1203 1
a 1204 1205 1
a 1205 1245 1
a 1205 1204 1
a 1205 1206 1
a 1206 1166 1
a 1206 1246 1
a 1206 1205 1
a 1211 1171 1
a 1211 1251 1
a 1211 1212 1
a 1212 1172 1
a 1212 1252 1
a 1212 1211 1
a 1212 1213 1
a 1213 1253 1
a 1213 1212 1
a 1217 1177 1
a 1217 1257 1
a 1219 1179 1
a 1219 1220 1
a 1220 1180 1
a 1220 1260 1
a 1220 1219 1
a 1220 1221 1
a 1221 1220 1
a 1221 1222 1
a 1222 1182 1
a 1222 1221 1
a 1222 1223 1
a 1223 1183 1
a 1223 1263 1
a 1223 1222 1
a 1225 1185 1
a 1225 1265 1
a 1228 1268 1
a 1228 1229 1
a 1229 1189 1
a 1229 1269 1
a 1229 1228 1
a 1231 1191 1
a 1231 1271 1
a 1233 1193 1
a 1233 1234 1
a 1234 1194 1
a 1234 1274 1
a 1234 1233 1
a 1236 1276 1
a 1236 1237 1
a 1237 1236 1
a 1237 1238 1
a 1238 1278 1
a 1238 1237 1
a 1238 1239 1
a 1239 1199 1
a 1239 1279 1
a 1239 1238 1
a 1239 1240 1
a 1240 1200 1
a 1240 1280 1
a 1240 1239 1
a 1241 1242 1
a 1242 1241 1
a 1244 1204 1
a 1244 1284 1
a 1244 1245 1
a 1245 1205 1
a 1245 1244 1
a 1245 1246 1
a 1246 1206 1
a 1246 1286 1
a 1246 1245 1
a 1248 1288 1
a 1250 1290 1
a 1250 1251 1
a 1251 1211 1
a 1251 1291 1
a 1251 1250 1
a 1251 1252 1
a 1252 1212 1
a 1252 1292 1
a 1252 1251 1
a 1252 1253 1
a 1253 1213 1
a 1253 1252 1
a 1253 1254 1
a 1254 1294 1
a 1254 1253 1
a 1257 1217 1
a 1257 1297 1
a 1260 1220 1
a 1260 1300 1
a 1263 1223 1
a 1263 1303 1
a 1265 1225 1
a 1265 1305 1
a 1267 1268 1
a 1268 1228 1
a 1268 1308 1
a 1268 1267 1
a 1268 1269 1
a 1269 1229 1
a 1269 1268 1
a 1269 1270 1
a 1270 1310 1
a 1270 1269 1
a 1270 1271 1
a 1271 1231 1
a 1271 1270 1
a 1274 1234 1
a 1274 1314 1
a 1276 1236 1
a 1278 1238 1
a 1278 1279 1
a 1279 1239 1
a 1279 1278 1
a 1279 1280 1
a 1280 1240 1
a 1280 1279 1
a 1284 1244 1
a 1284 1324 1
a 1286 1246 1
a 1286 1326 1
a 1286 1287 1
a 1287 1327 1
a 1287 1286 1
a 1287 1288 1
a 1288 1248 1
a 1288 1287 1
a 1290 1250 1
a 1290 1291 1
a 1291 1251 1
a 1291 1331 1
a 1291 1290 1
a 1291 1292 1
a 1292 1252 1
a 1292 1332 1
a 1292 1291 1
a 1294 1254 1
a 1294 1295 1
a 1295 1335 1
a 1295 1294 1
a 1297 1257 1
a 1299 1300 1
a 1300 1260 1
a 1300 1340 1
a 1300 1299 1
a 1300 1301 1
a 1301 1341 1
a 1301 1300 1
a 1301 1302 1
a 1302 1301 1
a 1302 1303 1
a 1303 1263 1
a 1303 1343 1
a 1303 1302 1
a 1303 1304 1
a 1304 1344 1
a 1304 1303 1
a 1304 1305 1
a 1305 1265 1
a 1305 1304 1
a 1305 1306 1
a 1306 1305 1
a 1308 1268 1
a 1308 1348 1
a 1310 1270 1
a 1310 1350 1
a 1312 1352 1
a 1314 1274 1
a 1314 1315 1
a 1315 1355 1
a 1315 1314 1
a 1323 1363 1
a 1323 1324 1
a 1324 1284 1
a 1324 1364 1
a 1324 1323 1
a 1326 1286 1
a 1326 1327 1
a 1327 1287 1
a 1327 1326 1
a 1331 1291 1
a 1331 1332 1
a 1332 1292 1
a 1332 1331 1
a 1335 1295 1
a 1335 1375 1
a 1335 1336 1
a 1336 1376 1
a 1336 1335 1
a 1340 1300 1
a 1340 1341 1
a 1341 1301 1
a 1341 1381 1
a 1341 1340 1
a 1343 1303 1
a 1343 1344 1
a 1344 1304 1
a 1344 1343 1
a 1347 1348 1
a 1348 1308 1
a 1348 1388 1
a 1348 1347 1
a 1350 1310 1
a 1350 1390 1
a 1350 1351 1
a 1351 1350 1
a 1351 1352 1
a 1352 1312 1
a 1352 1351 1
a 1355 1315 1
a 1355 1356 1
a 1356 1355 1
a 1356 1357 1
a 1357 1397 1
a 1357 1356 1
a 1357 1358 1
a 1358 1398 1
a 1358 1357 1
a 1358 1359 1
a 1359 1399 1
a 1359 1358 1
a 1359 1360 1
a 1360 1400 1
a 1360 1359 1
a 1362 1363 1
a 1363 1323 1
a 1363 1403 1
a 1363 1362 1
a 1363 1364 1
a 1364 1324 1
a 1364 1404 1
a 1364 1363 1
a 1364 1365 1
a 1365 1405 1
a 1365 1364 1
a 1370 1410 1
a 1374 1414 1
a 1374 1375 1
a 1375 1335 1
a 1375 1374 1
a 1375 1376 1
a 1376 1336 1
a 1376 1416 1
a 1376 1375 1
a 1376 1377 1
a 1377 1417 1
a 1377 1376 1
a 1377 1378 1
a 1378 1418 1
a 1378 1377 1
a 1381 1341 1
a 1381 1421 1
a 1385 1425 1
a 1385 1386 1
a 1386 1385 1
a 1388 1348 1
a 1390 1350 1
a 1390 1430 1
a 1393 1394 1
a 1394 1393 1
a 1397 1357 1
a 1397 1398 1
a 1398 1358 1
a 1398 1397 1
a 1398 1399 1
a 1399 1359 1
a 1399 1439 1
a 1399 1398 1
a 1399 1400 1
a 1400 1360 1
a 1400 1399 1
a 1403 1363 1
a 1403 1443 1
a 1403 1404 1
a 1404 1364 1
a 1404 1444 1
a 1404 1403 1
a 1404 1405 1
a 1405 1365 1
a 1405 1404 1
a 1405 1406 1
a 1406 1405 1
a 1409 1449 1
a 1409 1410 1
a 1410 1370 1
a 1410 1409 1
a 1410 1411 1
a 1411 1451 1
a 1411 1410 1
a 1411 1412 1
a 1412 1411 1
a 1414 1374 1
a 1416 1376 1
a 1416 1417 1
a 1417 1377 1
a 1417 1457 1
a 1417 1416 1
a 1417 1418 1
a 1418 1378 1
a 1418 1458 1
a 1418 1417 1
a 1420 1460 1
a 1420 1421 1
a 1421 1381 1
a 1421 1420 1
a 1424 1425 1
a 1425 1385 1
a 1425 1424 1
a 1429 1469 1
a 1429 1430 1
a 1430 1390 1
a 1430 1429 1
a 1430 1431 1
a 1431 1430 1
a 1431 1432 1
a 1432 1431 1
a 1435 1475 1
a 1435 1436 1
a 1436 1476 1
a 1436 1435 1
a 1439 1399 1
a 1439 1479 1
a 1441 1442 1
a 1442 1482 1
a 1442 1441 1
a 1442 1443 1
a 1443 1403 1
a 1443 1483 1
a 1443 1442 1
a 1443 1444 1
a 1444 1404 1
a 1444 1484 1
a 1444 1443 1
a 1447 1487 1
a 1447 1448 1
a 1448 1447 1
a 1448 1449 1
a 1449 1409 1
a 1449 1448 1
a 1451 1411 1
a 1455 1495 1
a 1457 1417 1
a 1457 1458 1
a 1458 1418 1
a 1458 1498 1
a 1458 1457 1
a 1458 1459 1
a 1459 1458 1
a 1459 1460 1
a 1460 1420 1
a 1460 1459 1
a 1463 1503 1
a 1469 1429 1
a 1469 1509 1
a 1475 1435 1
a 1475 1515 1
a 1475 1476 1
a 1476 1436 1
a 1476 1516 1
a 1476 1475 1
a 1476 1477 1
a 1477 1517 1
a 1477 1476 1
a 1477 1478 1
a 1478 1477 1
a 1478 1479 1
a 1479 1439 1
a 1479 1478 1
a 1479 1480 1
a 1480 1520 1
a 1480 1479 1
a 1482 1442 1
a 1482 1522 1
a 1482 1483 1
a 1483 1443 1
a 1483 1523 1
a 1483 1482 1
a 1483 1484 1
a 1484 1444 1
a 1484 1524 1
a 1484 1483 1
a 1484 1485 1
a 1485 1525 1
a 1485 1484 1
a 1487 1447 1
a 1487 1527 1
a 1494 1495 1
a 1495 1455 1
a 1495 1494 1
a 1495 1496 1
a 1496 1536 1
a 1496 1495 1
a 1498 1458 1
a 1501 1541 1
a 1501 1502 1
a 1502 1542 1
a 1502 1501 1
a 1502 1503 1
a 1503 1463 1
a 1503 1502 1
a 1505 1545 1
a 1507 1547 1
a 1509 1469 1
a 1509 1549 1
a 1509 1510 1
a 1510 1550 1
a 1510 1509 1
a 1515 1475 1
a 1515 1516 1
a 1516 1476 1
a 1516 1515 1
a 1516 1517 1
a 1517 1477 1
a 1517 1516 1
a 1520 1480 1
a 1520 1560 1
a 1522 1482 1
a 1522 1523 1
a 1523 1483 1
a 1523 1563 1
a 1523 1522 1
a 1523 1524 1
a 1524 1484 1
a 1524 1523 1
a 1524 1525 1
a 1525 1485 1
a 1525 1565 1
a 1525 1524 1
a 1527 1487 1
a 1527 1528 1
a 1528 1568 1
a 1528 1527 1
a 1530 1570 1
a 1530 1531 1
a 1531 1530 1
a 1536 1496 1
a 1536 1537 1
a 1537 1536 1
a 1540 1541 1
a 1541 1501 1
a 1541 1540 1
a 1541 1542 1
a 1542 1502 1
a 1542 1582 1
a 1542 1541 1
a 1545 1505 1
a 1545 1585 1
a 1545 1546 1
a 1546 1586 1
a 1546 1545 1
a 1546 1547 1
a 1547 1507 1
a 1547 1587 1
a 1547 1546 1
a 1549 1509 1
a 1549 1589 1
a 1549 1550 1
a 1550 1510 1
a 1550 1549 1
a 1552 1592 1
a 1552 1553 1
a 1553 1593 1
a 1553 1552 1
a 1553 1554 1
a 1554 1553 1
a 1560 1520 1
a 1560 1600 1
a 1563 1523 1
a 1565 1525 1
a 1565 1566 1
a 1566 1565 1
a 1568 1528 1
a 1570 1530 1
a 1572 1573 1
a 1573 1572 1
a 1573 1574 1
a 1574 1573 1
a 1574 1575 1
a 1575 1574 1
a 1582 1542 1
a 1584 1585 1
a 1585 1545 1
a 1585 1584 1
a 1585 1586 1
a 1586 1546 1
a 1586 1585 1
a 1586 1587 1
a 1587 1547 1
a 1587 1586 1
a 1589 1549 1
a 1591 1592 1
a 1592 1552 1
a 1592 1591 1
a 1592 1593 1
a 1593 1553 1
a 1593 1592 1
a 1599 1600 1
a 1600 1560 1
a 1600 1599 1
